&CONTROL
  calculation = 'scf',
  outdir = './out',
  prefix = 'Si',
  pseudo_dir = '../../pseudo',
  tprnfor = .true.
  tstress = .true.
  disk_io = 'none'
/
&SYSTEM
  ecutwfc = 60.0,
  occupations = 'fixed',
  ibrav = 0,
  nat = 64,
  ntyp = 1,
/
&ELECTRONS
  diagonalization = 'david'
  conv_thr = 1d-08,
/
K_POINTS automatic
  2 2 2 1 1 1
