!    ibrav = 0, nat = 64, ntyp = 1
CELL_PARAMETERS bohr
   20.5344067120685310    0.0000000000000000    0.0000000000000000
    0.0000000000000000   20.5344067120685310    0.0000000000000000
    0.0000000000000000    0.0000000000000000   20.5344067120685310
ATOMIC_SPECIES
 Si   28.08550   Si.pbesol-n-rrkjus_psl.1.0.0.UPF
ATOMIC_POSITIONS crystal
 Si   0.1254869875297699  0.3750000000000000  0.1250000000000000
 Si   0.6250000000000000  0.3750000000000000  0.1250000000000000
 Si   0.1250000000000000  0.8750000000000001  0.1250000000000000
 Si   0.6250000000000000  0.8750000000000001  0.1250000000000000
 Si   0.1250000000000000  0.3750000000000000  0.6250000000000000
 Si   0.6250000000000000  0.3750000000000000  0.6250000000000000
 Si   0.1250000000000000  0.8750000000000001  0.6250000000000000
 Si   0.6250000000000000  0.8750000000000001  0.6250000000000000
 Si   0.0000000000000000  0.0000000000000000  0.2500000000000000
 Si   0.5000000000000000  0.0000000000000000  0.2500000000000000
 Si   0.0000000000000000  0.5000000000000000  0.2500000000000000
 Si   0.5000000000000000  0.5000000000000000  0.2500000000000000
 Si   0.0000000000000000  0.0000000000000000  0.7500000000000000
 Si   0.5000000000000000  0.0000000000000000  0.7500000000000000
 Si   0.0000000000000000  0.5000000000000000  0.7500000000000000
 Si   0.5000000000000000  0.5000000000000000  0.7500000000000000
 Si   0.1250000000000000  0.1250000000000000  0.3750000000000000
 Si   0.6250000000000000  0.1250000000000000  0.3750000000000000
 Si   0.1250000000000000  0.6250000000000000  0.3750000000000000
 Si   0.6250000000000000  0.6250000000000000  0.3750000000000000
 Si   0.1250000000000000  0.1250000000000000  0.8750000000000001
 Si   0.6250000000000000  0.1250000000000000  0.8750000000000001
 Si   0.1250000000000000  0.6250000000000000  0.8750000000000001
 Si   0.6250000000000000  0.6250000000000000  0.8750000000000001
 Si   0.0000000000000000  0.2500000000000000  0.0000000000000000
 Si   0.5000000000000000  0.2500000000000000  0.0000000000000000
 Si   0.0000000000000000  0.7500000000000000  0.0000000000000000
 Si   0.5000000000000000  0.7500000000000000  0.0000000000000000
 Si   0.0000000000000000  0.2500000000000000  0.5000000000000000
 Si   0.5000000000000000  0.2500000000000000  0.5000000000000000
 Si   0.0000000000000000  0.7500000000000000  0.5000000000000000
 Si   0.5000000000000000  0.7500000000000000  0.5000000000000000
 Si   0.3750000000000000  0.3750000000000000  0.3750000000000000
 Si   0.8750000000000001  0.3750000000000000  0.3750000000000000
 Si   0.3750000000000000  0.8750000000000001  0.3750000000000000
 Si   0.8750000000000001  0.8750000000000001  0.3750000000000000
 Si   0.3750000000000000  0.3750000000000000  0.8750000000000001
 Si   0.8750000000000001  0.3750000000000000  0.8750000000000001
 Si   0.3750000000000000  0.8750000000000001  0.8750000000000001
 Si   0.8750000000000001  0.8750000000000001  0.8750000000000001
 Si   0.2500000000000000  0.0000000000000000  0.0000000000000000
 Si   0.7500000000000000  0.0000000000000000  0.0000000000000000
 Si   0.2500000000000000  0.5000000000000000  0.0000000000000000
 Si   0.7500000000000000  0.5000000000000000  0.0000000000000000
 Si   0.2500000000000000  0.0000000000000000  0.5000000000000000
 Si   0.7500000000000000  0.0000000000000000  0.5000000000000000
 Si   0.2500000000000000  0.5000000000000000  0.5000000000000000
 Si   0.7500000000000000  0.5000000000000000  0.5000000000000000
 Si   0.3750000000000000  0.1250000000000000  0.1250000000000000
 Si   0.8750000000000001  0.1250000000000000  0.1250000000000000
 Si   0.3750000000000000  0.6250000000000000  0.1250000000000000
 Si   0.8750000000000001  0.6250000000000000  0.1250000000000000
 Si   0.3750000000000000  0.1250000000000000  0.6250000000000000
 Si   0.8750000000000001  0.1250000000000000  0.6250000000000000
 Si   0.3750000000000000  0.6250000000000000  0.6250000000000000
 Si   0.8750000000000001  0.6250000000000000  0.6250000000000000
 Si   0.2500000000000000  0.2500000000000000  0.2500000000000000
 Si   0.7500000000000000  0.2500000000000000  0.2500000000000000
 Si   0.2500000000000000  0.7500000000000000  0.2500000000000000
 Si   0.7500000000000000  0.7500000000000000  0.2500000000000000
 Si   0.2500000000000000  0.2500000000000000  0.7500000000000000
 Si   0.7500000000000000  0.2500000000000000  0.7500000000000000
 Si   0.2500000000000000  0.7500000000000000  0.7500000000000000
 Si   0.7500000000000000  0.7500000000000000  0.7500000000000000