&dos
    fildos = 'Si.dos'
    outdir = './out'
    prefix = 'Si'
/
