&CONTROL
  calculation = 'bands',
  outdir = './out',
  prefix = 'Si',
  pseudo_dir = '../pseudo',
/
&SYSTEM
  ecutwfc = 60.0,
  nbnd = 12,
  occupations = 'fixed',
  ibrav = 0,
  nat = 2,
  ntyp = 1,
/
&ELECTRONS
  conv_thr = 1d-06,
/
&IONS
/
&CELL
/
ATOMIC_SPECIES
  Si  28.0855 Si.pbesol-n-rrkjus_psl.1.0.0.UPF
ATOMIC_POSITIONS crystal
  Si 0.250000 0.250000 0.250000
  Si 0.500000 0.500000 0.500000
K_POINTS crystal_b
  8
    0.00000000   0.00000000   0.00000000  35  ! GAMMA
    0.50000000   0.00000000   0.50000000  15  ! X
    0.62500000   0.25000000   0.62500000  20  ! U
    0.37500000   0.37500000   0.75000000  46  ! K
    0.00000000   0.00000000   0.00000000  43  ! GAMMA
    0.50000000   0.50000000   0.50000000  18  ! L
    0.50000000   0.25000000   0.75000000  18  ! W
    0.50000000   0.00000000   0.50000000  20  ! X

CELL_PARAMETERS angstrom
  -2.734364 -2.734364 0.000000
  -2.734364 0.000000 -2.734364
  0.000000 -2.734364 -2.734364