&projwfc
    degauss = 0.01
    outdir = './out'
    prefix = 'Si'
/
