&inputph
    tr2_ph = 1.0d-14
    prefix = 'Si'
    outdir = './out' 
    fildyn = 'Si.dyn'
    ldisp = .true.
    nq1 = 8
    nq2 = 8
    nq3 = 8
/

