&inputph
    tr2_ph = 1.0e-14
    prefix = 'Si_G'
    outdir = './out'
    fildyn = 'Si_G.dyn'
    ldisp = .false.
/
0.0 0.0 0.0

