&input
    fildyn = 'Si.dyn'
    flfrc = 'Si.fc'
/

