&CONTROL
  calculation = 'scf',
  outdir = './out',
  prefix = 'Si',
  pseudo_dir = '../../pseudo',
  restart_mode = 'from_scratch',
  tprnfor = .true.
/
&SYSTEM
  ecutwfc = 60.0,
  occupations = 'fixed',
  ibrav = 0,
  nat = 16,
  ntyp = 1,
/
&ELECTRONS
  conv_thr = 1d-06,
/
!    ibrav = 0, nat = 16, ntyp = 1
CELL_PARAMETERS bohr
  -10.3343982380154777  -10.3343982380154777    0.0000000000000000
  -10.3343982380154777    0.0000000000000000  -10.3343982380154777
    0.0000000000000000  -10.3343982380154777  -10.3343982380154777
ATOMIC_SPECIES
 Si   28.08550   Si.pbesol-n-rrkjus_psl.1.0.0.UPF
ATOMIC_POSITIONS crystal
 Si   0.1263684527437416  0.1250000000000000  0.1250000000000000
 Si   0.6250000000000000  0.1250000000000000  0.1250000000000000
 Si   0.1249999999999999  0.6250000000000002  0.1250000000000000
 Si   0.6249999999999999  0.6250000000000002  0.1250000000000001
 Si   0.1249999999999999  0.1250000000000000  0.6250000000000000
 Si   0.6250000000000000  0.1250000000000000  0.6250000000000000
 Si   0.1249999999999999  0.6250000000000002  0.6250000000000000
 Si   0.6249999999999999  0.6250000000000002  0.6250000000000000
 Si   0.2499999999999999  0.2500000000000001  0.2500000000000000
 Si   0.7499999999999999  0.2500000000000001  0.2500000000000000
 Si   0.2499999999999999  0.7500000000000002  0.2500000000000000
 Si   0.7500000000000000  0.7500000000000002  0.2499999999999999
 Si   0.2499999999999999  0.2500000000000001  0.7500000000000000
 Si   0.7500000000000000  0.2500000000000001  0.7500000000000000
 Si   0.2499999999999998  0.7500000000000002  0.7500000000000000
 Si   0.7499999999999999  0.7500000000000002  0.7499999999999999