!    ibrav = 0, nat = 16, ntyp = 1
CELL_PARAMETERS bohr
  -10.3343982380154777  -10.3343982380154777    0.0000000000000000
  -10.3343982380154777    0.0000000000000000  -10.3343982380154777
    0.0000000000000000  -10.3343982380154777  -10.3343982380154777
ATOMIC_SPECIES
 Si   28.08550   Si.pbesol-n-rrkjus_psl.1.0.0.UPF
ATOMIC_POSITIONS crystal
 Si   0.1250000000000000  0.1250000000000000  0.1250000000000000
 Si   0.6250000000000000  0.1250000000000000  0.1250000000000000
 Si   0.1250000000000000  0.6250000000000000  0.1250000000000000
 Si   0.6250000000000000  0.6250000000000000  0.1250000000000000
 Si   0.1250000000000000  0.1250000000000000  0.6250000000000000
 Si   0.6250000000000000  0.1250000000000000  0.6250000000000000
 Si   0.1250000000000000  0.6250000000000000  0.6250000000000000
 Si   0.6250000000000000  0.6250000000000000  0.6250000000000000
 Si   0.2500000000000000  0.2500000000000000  0.2500000000000000
 Si   0.7500000000000000  0.2500000000000000  0.2500000000000000
 Si   0.2500000000000000  0.7500000000000000  0.2500000000000000
 Si   0.7500000000000000  0.7500000000000000  0.2500000000000000
 Si   0.2500000000000000  0.2500000000000000  0.7500000000000000
 Si   0.7500000000000000  0.2500000000000000  0.7500000000000000
 Si   0.2500000000000000  0.7500000000000000  0.7500000000000000
 Si   0.7500000000000000  0.7500000000000000  0.7500000000000000