&bands
    filband = 'Si.band'
    lsym = .true.
    outdir = './out'
    prefix = 'Si'
/
