&inputph
    tr2_ph = 1.0e-14
    prefix = 'Si'
    outdir = './out'
    fildyn = 'Si.dyn'
    ldisp = .false.
/
1.0 0.0 0.0

