&projwfc
    outdir = './out'
    prefix = 'Si'
/
