&inputpp
    outdir = './out'
    plot_num = 0
    prefix = 'Si'
/

&plot
    fileout = 'Si_rho.cube'
    iflag = 3
    nx = 64
    ny = 64
    nz = 64
    output_format = 6
/
