&input
  fildyn = 'Si_G.dyn',
  filxsf = 'eigen_G.axsf'
  asr = 'simple',
  lperm = .true.,
  q(1) = 1.0,
  q(2) = 0.0,
  q(3) = 0.0,
/
